(declare-const a Real)
(declare-const b Real)
(declare-const c Real)
(assert (= (+ a b c) 3))
(assert (> a 0))
(assert (> b 0))
(assert (> c 0))
(assert (not (<= (+ (/ 3 5) (* -1 (pow (+ a b (* -1 c)) 2) (pow (+ (pow a 2) (pow b 2) (pow c 2) (* 2 a b)) -1)) (* -1 (pow (+ a c (* -1 b)) 2) (pow (+ (pow b 2) (* 2 (pow a 2)) (* 2 (pow c 2))) -1)) (* -1 (pow (+ b c (* -1 a)) 2) (pow (+ 1 (pow a 2) (pow b 4) (* 2 (pow c 2))) -1))) 0)))
(check-sat)
(get-model)
(exit)